(declare-fun bvlambda_71_ () (_ BitVec 1))
(declare-fun bvlambda_72_ () (_ BitVec 9))
(declare-fun a220 () (Array (_ BitVec 1) (_ BitVec 12)))
(assert
(let (($e1 (_ bv0 1)))
(let (($e37 (_ bv0 11)))
(let (($e38 (_ bv0 2)))
(let (($e309 (concat $e37 true               )))
(let (($e314 (concat        $e38 true         )))
(let (($e315 (concat $e314 bvlambda_72_)))
(let (($e317 (store a220 (bvnot $e1) $e315)))
(let (($e318 (store $e317 bvlambda_71_ $e309)))
(let (($e589 (select $e318 (bvnot $e1))))
             (   extract        $e589)
                                                                                                                                                                                                                                                                                                                                                                                                                                                                                                                                                                                                                                                                                                                                                                                                                                                                                                                                                                                                                                                                                                                                                                                                                                                                                                                                                                                                                                                                                                                                                                                                                                                                                                                                                                                                                                                                                                                                                                                                                                                                                                                                                                                                                                                                                                                                                                                                                                                                                                                                                                                                                                                                                                                                                                                                                                                                                                                                                                                                                                                                   )                                                                                                                                                                                                                                                                              )) ))    )                                                                                                                                                               ))                                   ))
